60 34 
15 1 
40 77 
17 35 
31 17 
0 77 
52 62 
27 32 
26 29 
51 97 
5 41 
28 60 
14 86 
70 51 
58 48 
78 71 
82 46 
72 22 
23 90 
10 54 
59 10 
83 11 
72 11 
95 99 
40 47 
48 98 
88 76 
58 54 
14 28 
57 24 
76 88 
95 10 
34 20 
85 9 
62 95 
63 21 
57 47 
84 82 
10 80 
33 2 
79 81 
0 19 
9 10 
73 23 
39 82 
47 67 
70 95 
30 4 
15 15 
13 29 
